(set-logic HORN)
(declare-datatypes ((Tok_0 0)) (((C_0 ) (D_0 ) (X_0 ) (Y_0 ) (Pl_0 ))))
(declare-datatypes ((list_0 0)) (((nil_0 ) (cons_0 (head_0 Tok_0) (tail_0 list_0)))))
(declare-datatypes ((E_0 0)) (((Plus_0 (projPlus_0 E_0) (projPlus_1 E_0)) (EX_0 ) (EY_0 ))))
(declare-fun diseqE_0 (E_0 E_0) Bool)
(declare-fun x_1 (list_0 list_0 list_0) Bool)
(declare-fun linTerm_0 (list_0 E_0) Bool)
(declare-fun lin_0 (list_0 E_0) Bool)
(assert (forall ((x_52 E_0) (x_53 E_0))
	(diseqE_0 (Plus_0 x_52 x_53) EX_0)))
(assert (forall ((x_54 E_0) (x_55 E_0))
	(diseqE_0 (Plus_0 x_54 x_55) EY_0)))
(assert (forall ((x_56 E_0) (x_57 E_0))
	(diseqE_0 EX_0 (Plus_0 x_56 x_57))))
(assert (forall ((x_58 E_0) (x_59 E_0))
	(diseqE_0 EY_0 (Plus_0 x_58 x_59))))
(assert (diseqE_0 EX_0 EY_0))
(assert (diseqE_0 EY_0 EX_0))
(assert (forall ((x_60 E_0) (x_61 E_0) (x_62 E_0) (x_63 E_0))
	(=> (diseqE_0 x_60 x_62) (diseqE_0 (Plus_0 x_60 x_61) (Plus_0 x_62 x_63)))))
(assert (forall ((x_60 E_0) (x_61 E_0) (x_62 E_0) (x_63 E_0))
	(=> (diseqE_0 x_61 x_63) (diseqE_0 (Plus_0 x_60 x_61) (Plus_0 x_62 x_63)))))
(assert (forall ((x_8 list_0) (z_0 Tok_0) (xs_0 list_0) (y_1 list_0))
	(=> (x_1 x_8 xs_0 y_1) (x_1 (cons_0 z_0 x_8) (cons_0 z_0 xs_0) y_1))))
(assert (forall ((x_9 list_0))
	(x_1 x_9 nil_0 x_9)))
(assert (linTerm_0 (cons_0 Y_0 nil_0) EY_0))
(assert (linTerm_0 (cons_0 X_0 nil_0) EX_0))
(assert (forall ((x_12 list_0) (x_13 list_0) (x_14 list_0) (y_2 E_0) (z_1 E_0))
	(=> (and (lin_0 x_13 (Plus_0 y_2 z_1)) (x_1 x_14 x_13 (cons_0 D_0 nil_0)) (x_1 x_12 (cons_0 C_0 nil_0) x_14)) (linTerm_0 x_12 (Plus_0 y_2 z_1)))))
(assert (lin_0 (cons_0 Y_0 nil_0) EY_0))
(assert (lin_0 (cons_0 X_0 nil_0) EX_0))
(assert (forall ((x_18 list_0) (x_19 list_0) (x_20 list_0) (x_21 list_0) (a_0 E_0) (b_0 E_0))
	(=> (and (linTerm_0 x_19 a_0) (linTerm_0 x_20 b_0) (x_1 x_21 (cons_0 Pl_0 nil_0) x_20) (x_1 x_18 x_19 x_21)) (lin_0 x_18 (Plus_0 a_0 b_0)))))
(assert (forall ((x_23 list_0) (u_0 E_0) (v_0 E_0))
	(=> (and (diseqE_0 u_0 v_0) (lin_0 x_23 u_0) (lin_0 x_23 v_0)) false)))
(check-sat)
(get-model)
